NAME: PointSet_Angle_50_8
TYPE: TSP
COMMENT: Points chosen discrete uniformly at random out of ${0, \ldots, 500}^2$.
DIMENSION: 50
EDGE_WEIGHT_TYPE: EUC_2D
NODE_COORD_SECTION
1 226 410
2 316 313
3 346 450
4 135 91
5 494 285
6 88 373
7 284 83
8 124 293
9 229 351
10 413 415
11 69 94
12 470 418
13 9 229
14 127 440
15 24 175
16 25 251
17 85 88
18 310 177
19 284 192
20 14 277
21 477 102
22 396 6
23 432 19
24 299 160
25 117 459
26 74 186
27 299 290
28 351 308
29 19 478
30 495 43
31 153 19
32 40 485
33 354 351
34 161 137
35 42 175
36 160 265
37 23 56
38 271 455
39 322 317
40 114 439
41 275 188
42 372 320
43 225 222
44 128 244
45 199 122
46 287 98
47 388 328
48 82 489
49 425 490
50 125 467
EOF
